problem_generation/data/GISP/train/er_n=66_m=1287_p=0.60_SET2_setparam=100.00_alpha=0.50_205.lp
maximize
OBJ:100x0 + 100x1 + 100x2 + 100x3 + 100x4 + 100x5 + 100x6 + 100x7 + 100x8 + 100x9 + 100x10 + 100x11 + 100x12 + 100x13 + 100x14 + 100x15 + 100x16 + 100x17 + 100x18 + 100x19 + 100x20 + 100x21 + 100x22 + 100x23 + 100x24 + 100x25 + 100x26 + 100x27 + 100x28 + 100x29 + 100x30 + 100x31 + 100x32 + 100x33 + 100x34 + 100x35 + 100x36 + 100x37 + 100x38 + 100x39 + 100x40 + 100x41 + 100x42 + 100x43 + 100x44 + 100x45 + 100x46 + 100x47 + 100x48 + 100x49 + 100x50 + 100x51 + 100x52 + 100x53 + 100x54 + 100x55 + 100x56 + 100x57 + 100x58 + 100x59 + 100x60 + 100x61 + 100x62 + 100x63 + 100x64 + 100x65 - y36_53 - y15_30 - y26_30 - y7_26 - y15_39 - y28_58 - y29_32 - y9_63 - y40_41 - y0_14 - y6_48 - y40_50 - y21_46 - y6_57 - y29_59 - y40_59 - y21_55 - y21_64 - y41_42 - y25_34 - y44_47 - y3_6 - y33_56 - y2_50 - y14_15 - y22_28 - y14_33 - y22_46 - y13_65 - y3_42 - y15_16 - y7_12 - y36_48 - y15_25 - y17_44 - y28_53 - y17_62 - y48_49 - y40_45 - y48_58 - y21_41 - y40_54 - y40_63 - y54_65 - y33_42 - y25_38 - y2_45 - y10_58 - y14_19 - y22_32 - y32_64 - y24_60 - y16_56 - y55_56 - y28_39 - y7_16 - y5_64 - y6_29 - y29_31 - y6_38 - y48_53 - y6_56 - y10_17 - y2_22 - y10_35 - y2_31 - y32_41 - y51_54 - y32_50 - y43_50 - y51_63 - y13_46 - y14_23 - y16_51 - y1_62 - y24_64 - y17_25 - y36_38 - y17_34 - y7_11 - y9_30 - y9_39 - y6_15 - y6_24 - y40_44 - y21_40 - y39_48 - y2_8 - y2_17 - y54_64 - y10_39 - y2_35 - y13_32 - y3_9 - y35_41 - y32_54 - y13_50 - y13_59 - y9_25 - y5_36 - y9_34 - y5_54 - y29_30 - y50_62 - y42_58 - y21_35 - y8_65 - y2_3 - y39_52 - y2_12 - y20_48 - y12_44 - y13_27 - y51_53 - y24_36 - y1_43 - y24_45 - y16_41 - y1_52 - y35_54 - y13_63 - y35_63 - y16_59 - y9_20 - y17_33 - y28_33 - y5_40 - y17_42 - y28_42 - y9_47 - y8_60 - y30_60 - y0_56 - y11_56 - y20_34 - y10_11 - y39_47 - y2_7 - y31_52 - y23_48 - y4_44 - y16_18 - y1_29 - y24_31 - y16_27 - y1_38 - y24_40 - y16_36 - y35_49 - y1_56 - y35_58 - y17_19 - y46_55 - y17_28 - y17_37 - y9_33 - y6_9 - y6_18 - y27_50 - y42_48 - y8_55 - y19_55 - y30_55 - y0_51 - y11_51 - y39_51 - y12_34 - y2_11 - y23_43 - y20_56 - y31_56 - y23_52 - y31_65 - y4_48 - y12_61 - y13_26 - y1_33 - y1_51 - y5_12 - y5_21 - y57_59 - y5_30 - y15_62 - y5_39 - y6_13 - y19_32 - y27_45 - y42_43 - y50_56 - y19_50 - y42_52 - y27_63 - y0_46 - y20_24 - y39_46 - y12_29 - y4_25 - y12_38 - y1_10 - y13_30 - y34_62 - y45_62 - y1_37 - y37_58 - y16_35 - y14_65 - y57_63 - y15_57 - y7_53 - y19_27 - y30_36 - y27_49 - y8_45 - y19_45 - y30_45 - y8_63 - y30_63 - y4_11 - y60_64 - y23_24 - y52_60 - y23_33 - y34_48 - y24_25 - y45_57 - y37_53 - y3_60 - y37_62 - y46_49 - y26_43 - y46_58 - y7_39 - y18_39 - y38_54 - y49_54 - y7_48 - y8_13 - y8_22 - y19_22 - y27_35 - y11_18 - y8_31 - y27_44 - y8_40 - y8_49 - y19_49 - y30_49 - y20_23 - y11_54 - y4_15 - y23_28 - y41_64 - y1_9 - y22_50 - y53_65 - y37_48 - y34_61 - y56_61 - y3_55 - y37_57 - y14_64 - y15_38 - y26_47 - y7_43 - y18_43 - y26_56 - y18_52 - y8_17 - y26_65 - y7_61 - y27_39 - y29_58 - y11_31 - y19_44 - y0_40 - y11_49 - y41_50 - y33_46 - y10_53 - y44_55 - y4_28 - y33_64 - y44_64 - y1_4 - y2_58 - y25_60 - y22_36 - y34_38 - y3_32 - y22_45 - y34_47 - y34_56 - y22_63 - y56_65 - y3_59 - y14_59 - y37_61 - y7_29 - y26_42 - y18_38 - y15_51 - y11_17 - y29_53 - y8_30 - y40_53 - y11_26 - y29_62 - y63_64 - y41_45 - y33_41 - y4_14 - y44_50 - y41_63 - y25_46 - y2_62 - y14_27 - y25_64 - y22_40 - y34_42 - y37_38 - y22_49 - y14_54 - y36_60 - y26_46 - y28_65 - y0_3 - y48_52 - y29_48 - y19_25 - y40_57 - y21_53 - y6_64 - y33_36 - y41_49 - y44_45 - y33_54 - y25_50 - y33_63 - y44_63 - y14_22 - y14_31 - y14_40 - y15_23 - y28_51 - y7_28 - y36_64 - y9_65 - y21_39 - y0_16 - y6_50 - y10_20 - y2_25 - y33_40 - y2_34 - y10_47 - y10_56 - y51_57 - y14_17 - y22_30 - y14_26 - y36_50 - y55_63 - y28_46 - y7_23 - y9_42 - y36_59 - y5_53 - y28_55 - y59_61 - y9_51 - y6_27 - y29_38 - y40_47 - y40_56 - y21_52 - y54_58 - y10_33 - y51_52 - y3_12 - y32_48 - y2_56 - y32_57 - y43_57 - y13_53 - y24_53 - y3_30 - y14_30 - y24_62 - y55_58 - y47_54 - y28_50 - y36_63 - y28_59 - y6_22 - y58_60 - y9_55 - y6_31 - y21_29 - y50_65 - y61_65 - y21_38 - y6_49 - y29_51 - y21_47 - y2_6 - y25_26 - y2_33 - y23_65 - y2_42 - y3_7 - y32_43 - y24_39 - y3_16 - y24_48 - y3_25 - y16_44 - y13_57 - y24_57 - y35_57 - y5_34 - y17_36 - y17_54 - y28_54 - y5_61 - y28_63 - y29_37 - y6_44 - y39_50 - y2_10 - y20_46 - y39_59 - y2_19 - y23_51 - y20_64 - y12_60 - y13_25 - y23_60 - y4_56 - y32_38 - y4_65 - y43_47 - y51_60 - y1_41 - y24_43 - y35_43 - y43_56 - y35_52 - y1_59 - y5_20 - y17_22 - y36_44 - y17_40 - y9_36 - y5_47 - y6_12 - y17_49 - y6_21 - y50_55 - y6_30 - y50_64 - y6_39 - y39_63 - y23_46 - y20_59 - y23_55 - y12_64 - y23_64 - y16_25 - y1_36 - y35_47 - y16_43 - y13_56 - y24_56 - y5_15 - y1_63 - y46_62 - y9_22 - y5_33 - y17_35 - y28_35 - y15_65 - y5_42 - y42_46 - y21_23 - y50_59 - y30_53 - y11_58 - y20_36 - y12_32 - y23_32 - y2_9 - y31_45 - y39_58 - y23_41 - y31_54 - y4_37 - y54_56 - y23_50 - y31_63 - y4_46 - y53_60 - y4_55 - y13_33 - y4_64 - y1_40 - y13_42 - y35_51 - y38_44 - y5_19 - y17_21 - y46_57 - y9_17 - y17_30 - y9_26 - y15_60 - y7_65 - y42_50 - y50_63 - y8_57 - y19_57 - y12_18 - y20_31 - y23_36 - y20_58 - y12_54 - y1_17 - y53_64 - y13_37 - y16_42 - y38_39 - y46_52 - y15_46 - y46_61 - y15_55 - y26_55 - y5_32 - y49_57 - y27_29 - y7_60 - y19_34 - y42_45 - y27_56 - y12_13 - y20_26 - y12_22 - y4_18 - y12_31 - y23_31 - y20_44 - y12_40 - y1_3 - y12_49 - y13_14 - y34_46 - y13_23 - y53_59 - y1_30 - y37_51 - y16_28 - y56_64 - y14_58 - y49_52 - y38_61 - y49_61 - y18_55 - y27_33 - y18_64 - y19_29 - y0_43 - y8_56 - y20_21 - y0_52 - y52_53 - y4_13 - y0_61 - y41_62 - y4_31 - y10_65 - y53_63 - y34_59 - y45_59 - y56_59 - y14_62 - y15_27 - y26_27 - y15_36 - y46_51 - y7_32 - y18_32 - y7_41 - y18_41 - y15_54 - y8_15 - y30_33 - y11_29 - y19_42 - y30_42 - y19_51 - y30_51 - y0_47 - y11_47 - y60_61 - y33_53 - y25_49 - y44_62 - y37_41 - y34_54 - y37_50 - y56_63 - y3_57 - y26_31 - y7_27 - y59_65 - y15_40 - y7_36 - y15_58 - y0_6 - y7_54 - y8_19 - y19_28 - y11_24 - y40_60 - y8_37 - y21_56 - y0_33 - y11_33 - y0_42 - y11_42 - y10_46 - y33_48 - y44_57 - y10_64 - y34_40 - y14_34 - y56_58 - y3_52 - y22_65 - y15_26 - y7_22 - y7_31 - y0_1 - y18_49 - y8_14 - y29_46 - y0_19 - y30_32 - y11_28 - y21_60 - y33_34 - y25_30 - y10_41 - y41_56 - y52_56 - y10_59 - y22_33 - y14_29 - y22_42 - y37_40 - y3_47
 Subject to
C1: x0+x1-y0_1 <=1 
C2: x0+x3-y0_3 <=1 
C3: x0+x4 <=1 
C4: x0+x6-y0_6 <=1 
C5: x0+x8 <=1 
C6: x0+x9 <=1 
C7: x0+x11 <=1 
C8: x0+x14-y0_14 <=1 
C9: x0+x16-y0_16 <=1 
C10: x0+x18 <=1 
C11: x0+x19-y0_19 <=1 
C12: x0+x21 <=1 
C13: x0+x22 <=1 
C14: x0+x23 <=1 
C15: x0+x26 <=1 
C16: x0+x28 <=1 
C17: x0+x31 <=1 
C18: x0+x32 <=1 
C19: x0+x33-y0_33 <=1 
C20: x0+x37 <=1 
C21: x0+x38 <=1 
C22: x0+x40-y0_40 <=1 
C23: x0+x42-y0_42 <=1 
C24: x0+x43-y0_43 <=1 
C25: x0+x46-y0_46 <=1 
C26: x0+x47-y0_47 <=1 
C27: x0+x49 <=1 
C28: x0+x50 <=1 
C29: x0+x51-y0_51 <=1 
C30: x0+x52-y0_52 <=1 
C31: x0+x55 <=1 
C32: x0+x56-y0_56 <=1 
C33: x0+x60 <=1 
C34: x0+x61-y0_61 <=1 
C35: x0+x63 <=1 
C36: x0+x64 <=1 
C37: x0+x65 <=1 
C38: x1+x2 <=1 
C39: x1+x3-y1_3 <=1 
C40: x1+x4-y1_4 <=1 
C41: x1+x5 <=1 
C42: x1+x7 <=1 
C43: x1+x8 <=1 
C44: x1+x9-y1_9 <=1 
C45: x1+x10-y1_10 <=1 
C46: x1+x14 <=1 
C47: x1+x17-y1_17 <=1 
C48: x1+x18 <=1 
C49: x1+x19 <=1 
C50: x1+x20 <=1 
C51: x1+x21 <=1 
C52: x1+x22 <=1 
C53: x1+x27 <=1 
C54: x1+x29-y1_29 <=1 
C55: x1+x30-y1_30 <=1 
C56: x1+x31 <=1 
C57: x1+x33-y1_33 <=1 
C58: x1+x34 <=1 
C59: x1+x35 <=1 
C60: x1+x36-y1_36 <=1 
C61: x1+x37-y1_37 <=1 
C62: x1+x38-y1_38 <=1 
C63: x1+x40-y1_40 <=1 
C64: x1+x41-y1_41 <=1 
C65: x1+x43-y1_43 <=1 
C66: x1+x45 <=1 
C67: x1+x47 <=1 
C68: x1+x51-y1_51 <=1 
C69: x1+x52-y1_52 <=1 
C70: x1+x53 <=1 
C71: x1+x54 <=1 
C72: x1+x56-y1_56 <=1 
C73: x1+x59-y1_59 <=1 
C74: x1+x60 <=1 
C75: x1+x61 <=1 
C76: x1+x62-y1_62 <=1 
C77: x1+x63-y1_63 <=1 
C78: x1+x65 <=1 
C79: x2+x3-y2_3 <=1 
C80: x2+x5 <=1 
C81: x2+x6-y2_6 <=1 
C82: x2+x7-y2_7 <=1 
C83: x2+x8-y2_8 <=1 
C84: x2+x9-y2_9 <=1 
C85: x2+x10-y2_10 <=1 
C86: x2+x11-y2_11 <=1 
C87: x2+x12-y2_12 <=1 
C88: x2+x14 <=1 
C89: x2+x16 <=1 
C90: x2+x17-y2_17 <=1 
C91: x2+x19-y2_19 <=1 
C92: x2+x22-y2_22 <=1 
C93: x2+x23 <=1 
C94: x2+x24 <=1 
C95: x2+x25-y2_25 <=1 
C96: x2+x27 <=1 
C97: x2+x29 <=1 
C98: x2+x30 <=1 
C99: x2+x31-y2_31 <=1 
C100: x2+x33-y2_33 <=1 
C101: x2+x34-y2_34 <=1 
C102: x2+x35-y2_35 <=1 
C103: x2+x38 <=1 
C104: x2+x41 <=1 
C105: x2+x42-y2_42 <=1 
C106: x2+x43 <=1 
C107: x2+x44 <=1 
C108: x2+x45-y2_45 <=1 
C109: x2+x49 <=1 
C110: x2+x50-y2_50 <=1 
C111: x2+x51 <=1 
C112: x2+x53 <=1 
C113: x2+x54 <=1 
C114: x2+x56-y2_56 <=1 
C115: x2+x57 <=1 
C116: x2+x58-y2_58 <=1 
C117: x2+x59 <=1 
C118: x2+x62-y2_62 <=1 
C119: x2+x63 <=1 
C120: x3+x6-y3_6 <=1 
C121: x3+x7-y3_7 <=1 
C122: x3+x8 <=1 
C123: x3+x9-y3_9 <=1 
C124: x3+x10 <=1 
C125: x3+x12-y3_12 <=1 
C126: x3+x16-y3_16 <=1 
C127: x3+x20 <=1 
C128: x3+x23 <=1 
C129: x3+x25-y3_25 <=1 
C130: x3+x26 <=1 
C131: x3+x27 <=1 
C132: x3+x29 <=1 
C133: x3+x30-y3_30 <=1 
C134: x3+x32-y3_32 <=1 
C135: x3+x33 <=1 
C136: x3+x35 <=1 
C137: x3+x36 <=1 
C138: x3+x37 <=1 
C139: x3+x38 <=1 
C140: x3+x42-y3_42 <=1 
C141: x3+x47-y3_47 <=1 
C142: x3+x49 <=1 
C143: x3+x51 <=1 
C144: x3+x52-y3_52 <=1 
C145: x3+x53 <=1 
C146: x3+x55-y3_55 <=1 
C147: x3+x57-y3_57 <=1 
C148: x3+x59-y3_59 <=1 
C149: x3+x60-y3_60 <=1 
C150: x3+x61 <=1 
C151: x3+x63 <=1 
C152: x3+x65 <=1 
C153: x4+x11-y4_11 <=1 
C154: x4+x12 <=1 
C155: x4+x13-y4_13 <=1 
C156: x4+x14-y4_14 <=1 
C157: x4+x15-y4_15 <=1 
C158: x4+x16 <=1 
C159: x4+x17 <=1 
C160: x4+x18-y4_18 <=1 
C161: x4+x19 <=1 
C162: x4+x23 <=1 
C163: x4+x25-y4_25 <=1 
C164: x4+x27 <=1 
C165: x4+x28-y4_28 <=1 
C166: x4+x30 <=1 
C167: x4+x31-y4_31 <=1 
C168: x4+x34 <=1 
C169: x4+x37-y4_37 <=1 
C170: x4+x40 <=1 
C171: x4+x42 <=1 
C172: x4+x44-y4_44 <=1 
C173: x4+x45 <=1 
C174: x4+x46-y4_46 <=1 
C175: x4+x47 <=1 
C176: x4+x48-y4_48 <=1 
C177: x4+x49 <=1 
C178: x4+x51 <=1 
C179: x4+x53 <=1 
C180: x4+x55-y4_55 <=1 
C181: x4+x56-y4_56 <=1 
C182: x4+x58 <=1 
C183: x4+x59 <=1 
C184: x4+x62 <=1 
C185: x4+x64-y4_64 <=1 
C186: x4+x65-y4_65 <=1 
C187: x5+x6 <=1 
C188: x5+x9 <=1 
C189: x5+x12-y5_12 <=1 
C190: x5+x13 <=1 
C191: x5+x15-y5_15 <=1 
C192: x5+x17 <=1 
C193: x5+x19-y5_19 <=1 
C194: x5+x20-y5_20 <=1 
C195: x5+x21-y5_21 <=1 
C196: x5+x23 <=1 
C197: x5+x27 <=1 
C198: x5+x30-y5_30 <=1 
C199: x5+x31 <=1 
C200: x5+x32-y5_32 <=1 
C201: x5+x33-y5_33 <=1 
C202: x5+x34-y5_34 <=1 
C203: x5+x36-y5_36 <=1 
C204: x5+x39-y5_39 <=1 
C205: x5+x40-y5_40 <=1 
C206: x5+x41 <=1 
C207: x5+x42-y5_42 <=1 
C208: x5+x47-y5_47 <=1 
C209: x5+x51 <=1 
C210: x5+x53-y5_53 <=1 
C211: x5+x54-y5_54 <=1 
C212: x5+x56 <=1 
C213: x5+x57 <=1 
C214: x5+x61-y5_61 <=1 
C215: x5+x64-y5_64 <=1 
C216: x5+x65 <=1 
C217: x6+x9-y6_9 <=1 
C218: x6+x12-y6_12 <=1 
C219: x6+x13-y6_13 <=1 
C220: x6+x15-y6_15 <=1 
C221: x6+x18-y6_18 <=1 
C222: x6+x19 <=1 
C223: x6+x21-y6_21 <=1 
C224: x6+x22-y6_22 <=1 
C225: x6+x24-y6_24 <=1 
C226: x6+x25 <=1 
C227: x6+x26 <=1 
C228: x6+x27-y6_27 <=1 
C229: x6+x29-y6_29 <=1 
C230: x6+x30-y6_30 <=1 
C231: x6+x31-y6_31 <=1 
C232: x6+x33 <=1 
C233: x6+x35 <=1 
C234: x6+x38-y6_38 <=1 
C235: x6+x39-y6_39 <=1 
C236: x6+x43 <=1 
C237: x6+x44-y6_44 <=1 
C238: x6+x47 <=1 
C239: x6+x48-y6_48 <=1 
C240: x6+x49-y6_49 <=1 
C241: x6+x50-y6_50 <=1 
C242: x6+x51 <=1 
C243: x6+x54 <=1 
C244: x6+x56-y6_56 <=1 
C245: x6+x57-y6_57 <=1 
C246: x6+x58 <=1 
C247: x6+x59 <=1 
C248: x6+x60 <=1 
C249: x6+x64-y6_64 <=1 
C250: x7+x9 <=1 
C251: x7+x11-y7_11 <=1 
C252: x7+x12-y7_12 <=1 
C253: x7+x16-y7_16 <=1 
C254: x7+x17 <=1 
C255: x7+x18 <=1 
C256: x7+x20 <=1 
C257: x7+x21 <=1 
C258: x7+x22-y7_22 <=1 
C259: x7+x23-y7_23 <=1 
C260: x7+x24 <=1 
C261: x7+x26-y7_26 <=1 
C262: x7+x27-y7_27 <=1 
C263: x7+x28-y7_28 <=1 
C264: x7+x29-y7_29 <=1 
C265: x7+x31-y7_31 <=1 
C266: x7+x32-y7_32 <=1 
C267: x7+x36-y7_36 <=1 
C268: x7+x39-y7_39 <=1 
C269: x7+x41-y7_41 <=1 
C270: x7+x43-y7_43 <=1 
C271: x7+x45 <=1 
C272: x7+x46 <=1 
C273: x7+x48-y7_48 <=1 
C274: x7+x49 <=1 
C275: x7+x51 <=1 
C276: x7+x53-y7_53 <=1 
C277: x7+x54-y7_54 <=1 
C278: x7+x56 <=1 
C279: x7+x57 <=1 
C280: x7+x60-y7_60 <=1 
C281: x7+x61-y7_61 <=1 
C282: x7+x64 <=1 
C283: x7+x65-y7_65 <=1 
C284: x8+x11 <=1 
C285: x8+x13-y8_13 <=1 
C286: x8+x14-y8_14 <=1 
C287: x8+x15-y8_15 <=1 
C288: x8+x17-y8_17 <=1 
C289: x8+x19-y8_19 <=1 
C290: x8+x22-y8_22 <=1 
C291: x8+x25 <=1 
C292: x8+x27 <=1 
C293: x8+x29 <=1 
C294: x8+x30-y8_30 <=1 
C295: x8+x31-y8_31 <=1 
C296: x8+x33 <=1 
C297: x8+x34 <=1 
C298: x8+x35 <=1 
C299: x8+x37-y8_37 <=1 
C300: x8+x39 <=1 
C301: x8+x40-y8_40 <=1 
C302: x8+x41 <=1 
C303: x8+x45-y8_45 <=1 
C304: x8+x47 <=1 
C305: x8+x49-y8_49 <=1 
C306: x8+x50 <=1 
C307: x8+x55-y8_55 <=1 
C308: x8+x56-y8_56 <=1 
C309: x8+x57-y8_57 <=1 
C310: x8+x58 <=1 
C311: x8+x60-y8_60 <=1 
C312: x8+x62 <=1 
C313: x8+x63-y8_63 <=1 
C314: x8+x64 <=1 
C315: x8+x65-y8_65 <=1 
C316: x9+x10 <=1 
C317: x9+x13 <=1 
C318: x9+x17-y9_17 <=1 
C319: x9+x18 <=1 
C320: x9+x20-y9_20 <=1 
C321: x9+x21 <=1 
C322: x9+x22-y9_22 <=1 
C323: x9+x23 <=1 
C324: x9+x25-y9_25 <=1 
C325: x9+x26-y9_26 <=1 
C326: x9+x28 <=1 
C327: x9+x29 <=1 
C328: x9+x30-y9_30 <=1 
C329: x9+x32 <=1 
C330: x9+x33-y9_33 <=1 
C331: x9+x34-y9_34 <=1 
C332: x9+x36-y9_36 <=1 
C333: x9+x39-y9_39 <=1 
C334: x9+x40 <=1 
C335: x9+x42-y9_42 <=1 
C336: x9+x43 <=1 
C337: x9+x45 <=1 
C338: x9+x47-y9_47 <=1 
C339: x9+x51-y9_51 <=1 
C340: x9+x54 <=1 
C341: x9+x55-y9_55 <=1 
C342: x9+x56 <=1 
C343: x9+x58 <=1 
C344: x9+x59 <=1 
C345: x9+x61 <=1 
C346: x9+x62 <=1 
C347: x9+x63-y9_63 <=1 
C348: x9+x64 <=1 
C349: x9+x65-y9_65 <=1 
C350: x10+x11-y10_11 <=1 
C351: x10+x12 <=1 
C352: x10+x15 <=1 
C353: x10+x17-y10_17 <=1 
C354: x10+x18 <=1 
C355: x10+x20-y10_20 <=1 
C356: x10+x23 <=1 
C357: x10+x26 <=1 
C358: x10+x31 <=1 
C359: x10+x33-y10_33 <=1 
C360: x10+x34 <=1 
C361: x10+x35-y10_35 <=1 
C362: x10+x38 <=1 
C363: x10+x39-y10_39 <=1 
C364: x10+x40 <=1 
C365: x10+x41-y10_41 <=1 
C366: x10+x42 <=1 
C367: x10+x43 <=1 
C368: x10+x44 <=1 
C369: x10+x45 <=1 
C370: x10+x46-y10_46 <=1 
C371: x10+x47-y10_47 <=1 
C372: x10+x51 <=1 
C373: x10+x52 <=1 
C374: x10+x53-y10_53 <=1 
C375: x10+x54 <=1 
C376: x10+x56-y10_56 <=1 
C377: x10+x57 <=1 
C378: x10+x58-y10_58 <=1 
C379: x10+x59-y10_59 <=1 
C380: x10+x60 <=1 
C381: x10+x63 <=1 
C382: x10+x64-y10_64 <=1 
C383: x10+x65-y10_65 <=1 
C384: x11+x13 <=1 
C385: x11+x16 <=1 
C386: x11+x17-y11_17 <=1 
C387: x11+x18-y11_18 <=1 
C388: x11+x21 <=1 
C389: x11+x22 <=1 
C390: x11+x23 <=1 
C391: x11+x24-y11_24 <=1 
C392: x11+x25 <=1 
C393: x11+x26-y11_26 <=1 
C394: x11+x28-y11_28 <=1 
C395: x11+x29-y11_29 <=1 
C396: x11+x30 <=1 
C397: x11+x31-y11_31 <=1 
C398: x11+x33-y11_33 <=1 
C399: x11+x34 <=1 
C400: x11+x35 <=1 
C401: x11+x37 <=1 
C402: x11+x39 <=1 
C403: x11+x42-y11_42 <=1 
C404: x11+x45 <=1 
C405: x11+x46 <=1 
C406: x11+x47-y11_47 <=1 
C407: x11+x49-y11_49 <=1 
C408: x11+x50 <=1 
C409: x11+x51-y11_51 <=1 
C410: x11+x53 <=1 
C411: x11+x54-y11_54 <=1 
C412: x11+x56-y11_56 <=1 
C413: x11+x58-y11_58 <=1 
C414: x11+x60 <=1 
C415: x11+x61 <=1 
C416: x11+x64 <=1 
C417: x11+x65 <=1 
C418: x12+x13-y12_13 <=1 
C419: x12+x15 <=1 
C420: x12+x17 <=1 
C421: x12+x18-y12_18 <=1 
C422: x12+x19 <=1 
C423: x12+x21 <=1 
C424: x12+x22-y12_22 <=1 
C425: x12+x28 <=1 
C426: x12+x29-y12_29 <=1 
C427: x12+x31-y12_31 <=1 
C428: x12+x32-y12_32 <=1 
C429: x12+x34-y12_34 <=1 
C430: x12+x35 <=1 
C431: x12+x37 <=1 
C432: x12+x38-y12_38 <=1 
C433: x12+x40-y12_40 <=1 
C434: x12+x41 <=1 
C435: x12+x42 <=1 
C436: x12+x44-y12_44 <=1 
C437: x12+x48 <=1 
C438: x12+x49-y12_49 <=1 
C439: x12+x52 <=1 
C440: x12+x54-y12_54 <=1 
C441: x12+x56 <=1 
C442: x12+x59 <=1 
C443: x12+x60-y12_60 <=1 
C444: x12+x61-y12_61 <=1 
C445: x12+x63 <=1 
C446: x12+x64-y12_64 <=1 
C447: x13+x14-y13_14 <=1 
C448: x13+x16 <=1 
C449: x13+x19 <=1 
C450: x13+x20 <=1 
C451: x13+x23-y13_23 <=1 
C452: x13+x25-y13_25 <=1 
C453: x13+x26-y13_26 <=1 
C454: x13+x27-y13_27 <=1 
C455: x13+x28 <=1 
C456: x13+x30-y13_30 <=1 
C457: x13+x31 <=1 
C458: x13+x32-y13_32 <=1 
C459: x13+x33-y13_33 <=1 
C460: x13+x36 <=1 
C461: x13+x37-y13_37 <=1 
C462: x13+x38 <=1 
C463: x13+x39 <=1 
C464: x13+x41 <=1 
C465: x13+x42-y13_42 <=1 
C466: x13+x44 <=1 
C467: x13+x46-y13_46 <=1 
C468: x13+x50-y13_50 <=1 
C469: x13+x51 <=1 
C470: x13+x53-y13_53 <=1 
C471: x13+x54 <=1 
C472: x13+x56-y13_56 <=1 
C473: x13+x57-y13_57 <=1 
C474: x13+x58 <=1 
C475: x13+x59-y13_59 <=1 
C476: x13+x60 <=1 
C477: x13+x61 <=1 
C478: x13+x62 <=1 
C479: x13+x63-y13_63 <=1 
C480: x13+x64 <=1 
C481: x13+x65-y13_65 <=1 
C482: x14+x15-y14_15 <=1 
C483: x14+x17-y14_17 <=1 
C484: x14+x19-y14_19 <=1 
C485: x14+x22-y14_22 <=1 
C486: x14+x23-y14_23 <=1 
C487: x14+x24 <=1 
C488: x14+x26-y14_26 <=1 
C489: x14+x27-y14_27 <=1 
C490: x14+x29-y14_29 <=1 
C491: x14+x30-y14_30 <=1 
C492: x14+x31-y14_31 <=1 
C493: x14+x32 <=1 
C494: x14+x33-y14_33 <=1 
C495: x14+x34-y14_34 <=1 
C496: x14+x36 <=1 
C497: x14+x37 <=1 
C498: x14+x40-y14_40 <=1 
C499: x14+x41 <=1 
C500: x14+x44 <=1 
C501: x14+x46 <=1 
C502: x14+x47 <=1 
C503: x14+x49 <=1 
C504: x14+x50 <=1 
C505: x14+x53 <=1 
C506: x14+x54-y14_54 <=1 
C507: x14+x57 <=1 
C508: x14+x58-y14_58 <=1 
C509: x14+x59-y14_59 <=1 
C510: x14+x60 <=1 
C511: x14+x62-y14_62 <=1 
C512: x14+x63 <=1 
C513: x14+x64-y14_64 <=1 
C514: x14+x65-y14_65 <=1 
C515: x15+x16-y15_16 <=1 
C516: x15+x18 <=1 
C517: x15+x20 <=1 
C518: x15+x21 <=1 
C519: x15+x22 <=1 
C520: x15+x23-y15_23 <=1 
C521: x15+x24 <=1 
C522: x15+x25-y15_25 <=1 
C523: x15+x26-y15_26 <=1 
C524: x15+x27-y15_27 <=1 
C525: x15+x30-y15_30 <=1 
C526: x15+x32 <=1 
C527: x15+x35 <=1 
C528: x15+x36-y15_36 <=1 
C529: x15+x37 <=1 
C530: x15+x38-y15_38 <=1 
C531: x15+x39-y15_39 <=1 
C532: x15+x40-y15_40 <=1 
C533: x15+x42 <=1 
C534: x15+x43 <=1 
C535: x15+x45 <=1 
C536: x15+x46-y15_46 <=1 
C537: x15+x48 <=1 
C538: x15+x49 <=1 
C539: x15+x50 <=1 
C540: x15+x51-y15_51 <=1 
C541: x15+x53 <=1 
C542: x15+x54-y15_54 <=1 
C543: x15+x55-y15_55 <=1 
C544: x15+x57-y15_57 <=1 
C545: x15+x58-y15_58 <=1 
C546: x15+x59 <=1 
C547: x15+x60-y15_60 <=1 
C548: x15+x62-y15_62 <=1 
C549: x15+x65-y15_65 <=1 
C550: x16+x18-y16_18 <=1 
C551: x16+x20 <=1 
C552: x16+x23 <=1 
C553: x16+x24 <=1 
C554: x16+x25-y16_25 <=1 
C555: x16+x27-y16_27 <=1 
C556: x16+x28-y16_28 <=1 
C557: x16+x30 <=1 
C558: x16+x32 <=1 
C559: x16+x33 <=1 
C560: x16+x35-y16_35 <=1 
C561: x16+x36-y16_36 <=1 
C562: x16+x37 <=1 
C563: x16+x38 <=1 
C564: x16+x40 <=1 
C565: x16+x41-y16_41 <=1 
C566: x16+x42-y16_42 <=1 
C567: x16+x43-y16_43 <=1 
C568: x16+x44-y16_44 <=1 
C569: x16+x45 <=1 
C570: x16+x47 <=1 
C571: x16+x48 <=1 
C572: x16+x50 <=1 
C573: x16+x51-y16_51 <=1 
C574: x16+x52 <=1 
C575: x16+x56-y16_56 <=1 
C576: x16+x57 <=1 
C577: x16+x59-y16_59 <=1 
C578: x16+x61 <=1 
C579: x16+x62 <=1 
C580: x17+x19-y17_19 <=1 
C581: x17+x20 <=1 
C582: x17+x21-y17_21 <=1 
C583: x17+x22-y17_22 <=1 
C584: x17+x25-y17_25 <=1 
C585: x17+x26 <=1 
C586: x17+x27 <=1 
C587: x17+x28-y17_28 <=1 
C588: x17+x30-y17_30 <=1 
C589: x17+x32 <=1 
C590: x17+x33-y17_33 <=1 
C591: x17+x34-y17_34 <=1 
C592: x17+x35-y17_35 <=1 
C593: x17+x36-y17_36 <=1 
C594: x17+x37-y17_37 <=1 
C595: x17+x38 <=1 
C596: x17+x40-y17_40 <=1 
C597: x17+x42-y17_42 <=1 
C598: x17+x44-y17_44 <=1 
C599: x17+x49-y17_49 <=1 
C600: x17+x54-y17_54 <=1 
C601: x17+x56 <=1 
C602: x17+x57 <=1 
C603: x17+x60 <=1 
C604: x17+x62-y17_62 <=1 
C605: x17+x64 <=1 
C606: x17+x65 <=1 
C607: x18+x19 <=1 
C608: x18+x28 <=1 
C609: x18+x29 <=1 
C610: x18+x32-y18_32 <=1 
C611: x18+x37 <=1 
C612: x18+x38-y18_38 <=1 
C613: x18+x39-y18_39 <=1 
C614: x18+x40 <=1 
C615: x18+x41-y18_41 <=1 
C616: x18+x42 <=1 
C617: x18+x43-y18_43 <=1 
C618: x18+x44 <=1 
C619: x18+x45 <=1 
C620: x18+x47 <=1 
C621: x18+x48 <=1 
C622: x18+x49-y18_49 <=1 
C623: x18+x50 <=1 
C624: x18+x52-y18_52 <=1 
C625: x18+x55-y18_55 <=1 
C626: x18+x59 <=1 
C627: x18+x64-y18_64 <=1 
C628: x19+x21 <=1 
C629: x19+x22-y19_22 <=1 
C630: x19+x24 <=1 
C631: x19+x25-y19_25 <=1 
C632: x19+x27-y19_27 <=1 
C633: x19+x28-y19_28 <=1 
C634: x19+x29-y19_29 <=1 
C635: x19+x31 <=1 
C636: x19+x32-y19_32 <=1 
C637: x19+x34-y19_34 <=1 
C638: x19+x35 <=1 
C639: x19+x38 <=1 
C640: x19+x39 <=1 
C641: x19+x42-y19_42 <=1 
C642: x19+x44-y19_44 <=1 
C643: x19+x45-y19_45 <=1 
C644: x19+x49-y19_49 <=1 
C645: x19+x50-y19_50 <=1 
C646: x19+x51-y19_51 <=1 
C647: x19+x53 <=1 
C648: x19+x54 <=1 
C649: x19+x55-y19_55 <=1 
C650: x19+x56 <=1 
C651: x19+x57-y19_57 <=1 
C652: x19+x58 <=1 
C653: x19+x60 <=1 
C654: x20+x21-y20_21 <=1 
C655: x20+x22 <=1 
C656: x20+x23-y20_23 <=1 
C657: x20+x24-y20_24 <=1 
C658: x20+x26-y20_26 <=1 
C659: x20+x27 <=1 
C660: x20+x28 <=1 
C661: x20+x30 <=1 
C662: x20+x31-y20_31 <=1 
C663: x20+x34-y20_34 <=1 
C664: x20+x36-y20_36 <=1 
C665: x20+x37 <=1 
C666: x20+x38 <=1 
C667: x20+x40 <=1 
C668: x20+x43 <=1 
C669: x20+x44-y20_44 <=1 
C670: x20+x45 <=1 
C671: x20+x46-y20_46 <=1 
C672: x20+x47 <=1 
C673: x20+x48-y20_48 <=1 
C674: x20+x49 <=1 
C675: x20+x52 <=1 
C676: x20+x53 <=1 
C677: x20+x54 <=1 
C678: x20+x55 <=1 
C679: x20+x56-y20_56 <=1 
C680: x20+x58-y20_58 <=1 
C681: x20+x59-y20_59 <=1 
C682: x20+x61 <=1 
C683: x20+x62 <=1 
C684: x20+x64-y20_64 <=1 
C685: x21+x23-y21_23 <=1 
C686: x21+x25 <=1 
C687: x21+x27 <=1 
C688: x21+x28 <=1 
C689: x21+x29-y21_29 <=1 
C690: x21+x34 <=1 
C691: x21+x35-y21_35 <=1 
C692: x21+x38-y21_38 <=1 
C693: x21+x39-y21_39 <=1 
C694: x21+x40-y21_40 <=1 
C695: x21+x41-y21_41 <=1 
C696: x21+x45 <=1 
C697: x21+x46-y21_46 <=1 
C698: x21+x47-y21_47 <=1 
C699: x21+x49 <=1 
C700: x21+x50 <=1 
C701: x21+x51 <=1 
C702: x21+x52-y21_52 <=1 
C703: x21+x53-y21_53 <=1 
C704: x21+x54 <=1 
C705: x21+x55-y21_55 <=1 
C706: x21+x56-y21_56 <=1 
C707: x21+x57 <=1 
C708: x21+x58 <=1 
C709: x21+x59 <=1 
C710: x21+x60-y21_60 <=1 
C711: x21+x64-y21_64 <=1 
C712: x21+x65 <=1 
C713: x22+x25 <=1 
C714: x22+x27 <=1 
C715: x22+x28-y22_28 <=1 
C716: x22+x30-y22_30 <=1 
C717: x22+x32-y22_32 <=1 
C718: x22+x33-y22_33 <=1 
C719: x22+x34 <=1 
C720: x22+x35 <=1 
C721: x22+x36-y22_36 <=1 
C722: x22+x39 <=1 
C723: x22+x40-y22_40 <=1 
C724: x22+x42-y22_42 <=1 
C725: x22+x43 <=1 
C726: x22+x45-y22_45 <=1 
C727: x22+x46-y22_46 <=1 
C728: x22+x48 <=1 
C729: x22+x49-y22_49 <=1 
C730: x22+x50-y22_50 <=1 
C731: x22+x54 <=1 
C732: x22+x55 <=1 
C733: x22+x56 <=1 
C734: x22+x57 <=1 
C735: x22+x58 <=1 
C736: x22+x63-y22_63 <=1 
C737: x22+x65-y22_65 <=1 
C738: x23+x24-y23_24 <=1 
C739: x23+x25 <=1 
C740: x23+x27 <=1 
C741: x23+x28-y23_28 <=1 
C742: x23+x29 <=1 
C743: x23+x30 <=1 
C744: x23+x31-y23_31 <=1 
C745: x23+x32-y23_32 <=1 
C746: x23+x33-y23_33 <=1 
C747: x23+x34 <=1 
C748: x23+x35 <=1 
C749: x23+x36-y23_36 <=1 
C750: x23+x37 <=1 
C751: x23+x39 <=1 
C752: x23+x41-y23_41 <=1 
C753: x23+x42 <=1 
C754: x23+x43-y23_43 <=1 
C755: x23+x45 <=1 
C756: x23+x46-y23_46 <=1 
C757: x23+x48-y23_48 <=1 
C758: x23+x50-y23_50 <=1 
C759: x23+x51-y23_51 <=1 
C760: x23+x52-y23_52 <=1 
C761: x23+x53 <=1 
C762: x23+x54 <=1 
C763: x23+x55-y23_55 <=1 
C764: x23+x57 <=1 
C765: x23+x60-y23_60 <=1 
C766: x23+x62 <=1 
C767: x23+x63 <=1 
C768: x23+x64-y23_64 <=1 
C769: x23+x65-y23_65 <=1 
C770: x24+x25-y24_25 <=1 
C771: x24+x27 <=1 
C772: x24+x29 <=1 
C773: x24+x30 <=1 
C774: x24+x31-y24_31 <=1 
C775: x24+x32 <=1 
C776: x24+x34 <=1 
C777: x24+x35 <=1 
C778: x24+x36-y24_36 <=1 
C779: x24+x37 <=1 
C780: x24+x38 <=1 
C781: x24+x39-y24_39 <=1 
C782: x24+x40-y24_40 <=1 
C783: x24+x43-y24_43 <=1 
C784: x24+x44 <=1 
C785: x24+x45-y24_45 <=1 
C786: x24+x48-y24_48 <=1 
C787: x24+x51 <=1 
C788: x24+x53-y24_53 <=1 
C789: x24+x56-y24_56 <=1 
C790: x24+x57-y24_57 <=1 
C791: x24+x60-y24_60 <=1 
C792: x24+x62-y24_62 <=1 
C793: x24+x64-y24_64 <=1 
C794: x24+x65 <=1 
C795: x25+x26-y25_26 <=1 
C796: x25+x29 <=1 
C797: x25+x30-y25_30 <=1 
C798: x25+x33 <=1 
C799: x25+x34-y25_34 <=1 
C800: x25+x35 <=1 
C801: x25+x38-y25_38 <=1 
C802: x25+x40 <=1 
C803: x25+x45 <=1 
C804: x25+x46-y25_46 <=1 
C805: x25+x47 <=1 
C806: x25+x49-y25_49 <=1 
C807: x25+x50-y25_50 <=1 
C808: x25+x53 <=1 
C809: x25+x54 <=1 
C810: x25+x56 <=1 
C811: x25+x60-y25_60 <=1 
C812: x25+x64-y25_64 <=1 
C813: x26+x27-y26_27 <=1 
C814: x26+x28 <=1 
C815: x26+x30-y26_30 <=1 
C816: x26+x31-y26_31 <=1 
C817: x26+x32 <=1 
C818: x26+x34 <=1 
C819: x26+x35 <=1 
C820: x26+x42-y26_42 <=1 
C821: x26+x43-y26_43 <=1 
C822: x26+x45 <=1 
C823: x26+x46-y26_46 <=1 
C824: x26+x47-y26_47 <=1 
C825: x26+x48 <=1 
C826: x26+x49 <=1 
C827: x26+x52 <=1 
C828: x26+x53 <=1 
C829: x26+x55-y26_55 <=1 
C830: x26+x56-y26_56 <=1 
C831: x26+x57 <=1 
C832: x26+x58 <=1 
C833: x26+x59 <=1 
C834: x26+x60 <=1 
C835: x26+x61 <=1 
C836: x26+x62 <=1 
C837: x26+x63 <=1 
C838: x26+x64 <=1 
C839: x26+x65-y26_65 <=1 
C840: x27+x29-y27_29 <=1 
C841: x27+x30 <=1 
C842: x27+x31 <=1 
C843: x27+x32 <=1 
C844: x27+x33-y27_33 <=1 
C845: x27+x35-y27_35 <=1 
C846: x27+x37 <=1 
C847: x27+x39-y27_39 <=1 
C848: x27+x41 <=1 
C849: x27+x44-y27_44 <=1 
C850: x27+x45-y27_45 <=1 
C851: x27+x47 <=1 
C852: x27+x48 <=1 
C853: x27+x49-y27_49 <=1 
C854: x27+x50-y27_50 <=1 
C855: x27+x51 <=1 
C856: x27+x52 <=1 
C857: x27+x54 <=1 
C858: x27+x56-y27_56 <=1 
C859: x27+x58 <=1 
C860: x27+x61 <=1 
C861: x27+x63-y27_63 <=1 
C862: x28+x29 <=1 
C863: x28+x31 <=1 
C864: x28+x33-y28_33 <=1 
C865: x28+x34 <=1 
C866: x28+x35-y28_35 <=1 
C867: x28+x36 <=1 
C868: x28+x39-y28_39 <=1 
C869: x28+x40 <=1 
C870: x28+x41 <=1 
C871: x28+x42-y28_42 <=1 
C872: x28+x45 <=1 
C873: x28+x46-y28_46 <=1 
C874: x28+x50-y28_50 <=1 
C875: x28+x51-y28_51 <=1 
C876: x28+x52 <=1 
C877: x28+x53-y28_53 <=1 
C878: x28+x54-y28_54 <=1 
C879: x28+x55-y28_55 <=1 
C880: x28+x58-y28_58 <=1 
C881: x28+x59-y28_59 <=1 
C882: x28+x60 <=1 
C883: x28+x61 <=1 
C884: x28+x63-y28_63 <=1 
C885: x28+x65-y28_65 <=1 
C886: x29+x30-y29_30 <=1 
C887: x29+x31-y29_31 <=1 
C888: x29+x32-y29_32 <=1 
C889: x29+x34 <=1 
C890: x29+x35 <=1 
C891: x29+x37-y29_37 <=1 
C892: x29+x38-y29_38 <=1 
C893: x29+x39 <=1 
C894: x29+x40 <=1 
C895: x29+x41 <=1 
C896: x29+x44 <=1 
C897: x29+x45 <=1 
C898: x29+x46-y29_46 <=1 
C899: x29+x48-y29_48 <=1 
C900: x29+x50 <=1 
C901: x29+x51-y29_51 <=1 
C902: x29+x53-y29_53 <=1 
C903: x29+x54 <=1 
C904: x29+x56 <=1 
C905: x29+x57 <=1 
C906: x29+x58-y29_58 <=1 
C907: x29+x59-y29_59 <=1 
C908: x29+x60 <=1 
C909: x29+x62-y29_62 <=1 
C910: x29+x63 <=1 
C911: x30+x32-y30_32 <=1 
C912: x30+x33-y30_33 <=1 
C913: x30+x34 <=1 
C914: x30+x35 <=1 
C915: x30+x36-y30_36 <=1 
C916: x30+x37 <=1 
C917: x30+x38 <=1 
C918: x30+x40 <=1 
C919: x30+x42-y30_42 <=1 
C920: x30+x43 <=1 
C921: x30+x45-y30_45 <=1 
C922: x30+x47 <=1 
C923: x30+x49-y30_49 <=1 
C924: x30+x50 <=1 
C925: x30+x51-y30_51 <=1 
C926: x30+x53-y30_53 <=1 
C927: x30+x55-y30_55 <=1 
C928: x30+x56 <=1 
C929: x30+x60-y30_60 <=1 
C930: x30+x63-y30_63 <=1 
C931: x30+x64 <=1 
C932: x30+x65 <=1 
C933: x31+x32 <=1 
C934: x31+x35 <=1 
C935: x31+x37 <=1 
C936: x31+x38 <=1 
C937: x31+x45-y31_45 <=1 
C938: x31+x50 <=1 
C939: x31+x52-y31_52 <=1 
C940: x31+x53 <=1 
C941: x31+x54-y31_54 <=1 
C942: x31+x56-y31_56 <=1 
C943: x31+x61 <=1 
C944: x31+x62 <=1 
C945: x31+x63-y31_63 <=1 
C946: x31+x65-y31_65 <=1 
C947: x32+x34 <=1 
C948: x32+x37 <=1 
C949: x32+x38-y32_38 <=1 
C950: x32+x39 <=1 
C951: x32+x40 <=1 
C952: x32+x41-y32_41 <=1 
C953: x32+x43-y32_43 <=1 
C954: x32+x46 <=1 
C955: x32+x47 <=1 
C956: x32+x48-y32_48 <=1 
C957: x32+x50-y32_50 <=1 
C958: x32+x51 <=1 
C959: x32+x54-y32_54 <=1 
C960: x32+x55 <=1 
C961: x32+x56 <=1 
C962: x32+x57-y32_57 <=1 
C963: x32+x58 <=1 
C964: x32+x64-y32_64 <=1 
C965: x33+x34-y33_34 <=1 
C966: x33+x35 <=1 
C967: x33+x36-y33_36 <=1 
C968: x33+x37 <=1 
C969: x33+x40-y33_40 <=1 
C970: x33+x41-y33_41 <=1 
C971: x33+x42-y33_42 <=1 
C972: x33+x46-y33_46 <=1 
C973: x33+x47 <=1 
C974: x33+x48-y33_48 <=1 
C975: x33+x49 <=1 
C976: x33+x51 <=1 
C977: x33+x53-y33_53 <=1 
C978: x33+x54-y33_54 <=1 
C979: x33+x56-y33_56 <=1 
C980: x33+x57 <=1 
C981: x33+x59 <=1 
C982: x33+x60 <=1 
C983: x33+x62 <=1 
C984: x33+x63-y33_63 <=1 
C985: x33+x64-y33_64 <=1 
C986: x34+x37 <=1 
C987: x34+x38-y34_38 <=1 
C988: x34+x39 <=1 
C989: x34+x40-y34_40 <=1 
C990: x34+x41 <=1 
C991: x34+x42-y34_42 <=1 
C992: x34+x44 <=1 
C993: x34+x46-y34_46 <=1 
C994: x34+x47-y34_47 <=1 
C995: x34+x48-y34_48 <=1 
C996: x34+x50 <=1 
C997: x34+x54-y34_54 <=1 
C998: x34+x56-y34_56 <=1 
C999: x34+x57 <=1 
C1000: x34+x59-y34_59 <=1 
C1001: x34+x60 <=1 
C1002: x34+x61-y34_61 <=1 
C1003: x34+x62-y34_62 <=1 
C1004: x34+x63 <=1 
C1005: x35+x36 <=1 
C1006: x35+x38 <=1 
C1007: x35+x39 <=1 
C1008: x35+x41-y35_41 <=1 
C1009: x35+x43-y35_43 <=1 
C1010: x35+x47-y35_47 <=1 
C1011: x35+x49-y35_49 <=1 
C1012: x35+x51-y35_51 <=1 
C1013: x35+x52-y35_52 <=1 
C1014: x35+x54-y35_54 <=1 
C1015: x35+x57-y35_57 <=1 
C1016: x35+x58-y35_58 <=1 
C1017: x35+x62 <=1 
C1018: x35+x63-y35_63 <=1 
C1019: x36+x38-y36_38 <=1 
C1020: x36+x40 <=1 
C1021: x36+x41 <=1 
C1022: x36+x43 <=1 
C1023: x36+x44-y36_44 <=1 
C1024: x36+x45 <=1 
C1025: x36+x46 <=1 
C1026: x36+x48-y36_48 <=1 
C1027: x36+x50-y36_50 <=1 
C1028: x36+x52 <=1 
C1029: x36+x53-y36_53 <=1 
C1030: x36+x54 <=1 
C1031: x36+x56 <=1 
C1032: x36+x57 <=1 
C1033: x36+x58 <=1 
C1034: x36+x59-y36_59 <=1 
C1035: x36+x60-y36_60 <=1 
C1036: x36+x62 <=1 
C1037: x36+x63-y36_63 <=1 
C1038: x36+x64-y36_64 <=1 
C1039: x37+x38-y37_38 <=1 
C1040: x37+x39 <=1 
C1041: x37+x40-y37_40 <=1 
C1042: x37+x41-y37_41 <=1 
C1043: x37+x42 <=1 
C1044: x37+x43 <=1 
C1045: x37+x44 <=1 
C1046: x37+x45 <=1 
C1047: x37+x48-y37_48 <=1 
C1048: x37+x49 <=1 
C1049: x37+x50-y37_50 <=1 
C1050: x37+x51-y37_51 <=1 
C1051: x37+x53-y37_53 <=1 
C1052: x37+x56 <=1 
C1053: x37+x57-y37_57 <=1 
C1054: x37+x58-y37_58 <=1 
C1055: x37+x60 <=1 
C1056: x37+x61-y37_61 <=1 
C1057: x37+x62-y37_62 <=1 
C1058: x37+x63 <=1 
C1059: x38+x39-y38_39 <=1 
C1060: x38+x40 <=1 
C1061: x38+x44-y38_44 <=1 
C1062: x38+x45 <=1 
C1063: x38+x46 <=1 
C1064: x38+x52 <=1 
C1065: x38+x53 <=1 
C1066: x38+x54-y38_54 <=1 
C1067: x38+x55 <=1 
C1068: x38+x56 <=1 
C1069: x38+x57 <=1 
C1070: x38+x59 <=1 
C1071: x38+x61-y38_61 <=1 
C1072: x38+x62 <=1 
C1073: x39+x40 <=1 
C1074: x39+x42 <=1 
C1075: x39+x43 <=1 
C1076: x39+x44 <=1 
C1077: x39+x46-y39_46 <=1 
C1078: x39+x47-y39_47 <=1 
C1079: x39+x48-y39_48 <=1 
C1080: x39+x50-y39_50 <=1 
C1081: x39+x51-y39_51 <=1 
C1082: x39+x52-y39_52 <=1 
C1083: x39+x54 <=1 
C1084: x39+x56 <=1 
C1085: x39+x58-y39_58 <=1 
C1086: x39+x59-y39_59 <=1 
C1087: x39+x60 <=1 
C1088: x39+x61 <=1 
C1089: x39+x63-y39_63 <=1 
C1090: x39+x65 <=1 
C1091: x40+x41-y40_41 <=1 
C1092: x40+x42 <=1 
C1093: x40+x44-y40_44 <=1 
C1094: x40+x45-y40_45 <=1 
C1095: x40+x47-y40_47 <=1 
C1096: x40+x49 <=1 
C1097: x40+x50-y40_50 <=1 
C1098: x40+x51 <=1 
C1099: x40+x53-y40_53 <=1 
C1100: x40+x54-y40_54 <=1 
C1101: x40+x56-y40_56 <=1 
C1102: x40+x57-y40_57 <=1 
C1103: x40+x59-y40_59 <=1 
C1104: x40+x60-y40_60 <=1 
C1105: x40+x62 <=1 
C1106: x40+x63-y40_63 <=1 
C1107: x40+x64 <=1 
C1108: x41+x42-y41_42 <=1 
C1109: x41+x43 <=1 
C1110: x41+x45-y41_45 <=1 
C1111: x41+x46 <=1 
C1112: x41+x48 <=1 
C1113: x41+x49-y41_49 <=1 
C1114: x41+x50-y41_50 <=1 
C1115: x41+x51 <=1 
C1116: x41+x53 <=1 
C1117: x41+x55 <=1 
C1118: x41+x56-y41_56 <=1 
C1119: x41+x57 <=1 
C1120: x41+x58 <=1 
C1121: x41+x59 <=1 
C1122: x41+x60 <=1 
C1123: x41+x61 <=1 
C1124: x41+x62-y41_62 <=1 
C1125: x41+x63-y41_63 <=1 
C1126: x41+x64-y41_64 <=1 
C1127: x41+x65 <=1 
C1128: x42+x43-y42_43 <=1 
C1129: x42+x44 <=1 
C1130: x42+x45-y42_45 <=1 
C1131: x42+x46-y42_46 <=1 
C1132: x42+x48-y42_48 <=1 
C1133: x42+x50-y42_50 <=1 
C1134: x42+x51 <=1 
C1135: x42+x52-y42_52 <=1 
C1136: x42+x54 <=1 
C1137: x42+x57 <=1 
C1138: x42+x58-y42_58 <=1 
C1139: x42+x59 <=1 
C1140: x42+x60 <=1 
C1141: x42+x61 <=1 
C1142: x42+x65 <=1 
C1143: x43+x46 <=1 
C1144: x43+x47-y43_47 <=1 
C1145: x43+x48 <=1 
C1146: x43+x49 <=1 
C1147: x43+x50-y43_50 <=1 
C1148: x43+x55 <=1 
C1149: x43+x56-y43_56 <=1 
C1150: x43+x57-y43_57 <=1 
C1151: x43+x58 <=1 
C1152: x43+x61 <=1 
C1153: x44+x45-y44_45 <=1 
C1154: x44+x46 <=1 
C1155: x44+x47-y44_47 <=1 
C1156: x44+x49 <=1 
C1157: x44+x50-y44_50 <=1 
C1158: x44+x51 <=1 
C1159: x44+x52 <=1 
C1160: x44+x55-y44_55 <=1 
C1161: x44+x57-y44_57 <=1 
C1162: x44+x59 <=1 
C1163: x44+x60 <=1 
C1164: x44+x62-y44_62 <=1 
C1165: x44+x63-y44_63 <=1 
C1166: x44+x64-y44_64 <=1 
C1167: x44+x65 <=1 
C1168: x45+x46 <=1 
C1169: x45+x48 <=1 
C1170: x45+x49 <=1 
C1171: x45+x50 <=1 
C1172: x45+x52 <=1 
C1173: x45+x57-y45_57 <=1 
C1174: x45+x59-y45_59 <=1 
C1175: x45+x61 <=1 
C1176: x45+x62-y45_62 <=1 
C1177: x45+x63 <=1 
C1178: x45+x65 <=1 
C1179: x46+x49-y46_49 <=1 
C1180: x46+x50 <=1 
C1181: x46+x51-y46_51 <=1 
C1182: x46+x52-y46_52 <=1 
C1183: x46+x55-y46_55 <=1 
C1184: x46+x57-y46_57 <=1 
C1185: x46+x58-y46_58 <=1 
C1186: x46+x61-y46_61 <=1 
C1187: x46+x62-y46_62 <=1 
C1188: x46+x64 <=1 
C1189: x46+x65 <=1 
C1190: x47+x48 <=1 
C1191: x47+x50 <=1 
C1192: x47+x53 <=1 
C1193: x47+x54-y47_54 <=1 
C1194: x47+x55 <=1 
C1195: x47+x58 <=1 
C1196: x47+x59 <=1 
C1197: x47+x61 <=1 
C1198: x47+x62 <=1 
C1199: x48+x49-y48_49 <=1 
C1200: x48+x52-y48_52 <=1 
C1201: x48+x53-y48_53 <=1 
C1202: x48+x56 <=1 
C1203: x48+x58-y48_58 <=1 
C1204: x48+x59 <=1 
C1205: x48+x63 <=1 
C1206: x48+x65 <=1 
C1207: x49+x50 <=1 
C1208: x49+x52-y49_52 <=1 
C1209: x49+x54-y49_54 <=1 
C1210: x49+x57-y49_57 <=1 
C1211: x49+x59 <=1 
C1212: x49+x61-y49_61 <=1 
C1213: x49+x65 <=1 
C1214: x50+x52 <=1 
C1215: x50+x55-y50_55 <=1 
C1216: x50+x56-y50_56 <=1 
C1217: x50+x57 <=1 
C1218: x50+x59-y50_59 <=1 
C1219: x50+x61 <=1 
C1220: x50+x62-y50_62 <=1 
C1221: x50+x63-y50_63 <=1 
C1222: x50+x64-y50_64 <=1 
C1223: x50+x65-y50_65 <=1 
C1224: x51+x52-y51_52 <=1 
C1225: x51+x53-y51_53 <=1 
C1226: x51+x54-y51_54 <=1 
C1227: x51+x57-y51_57 <=1 
C1228: x51+x58 <=1 
C1229: x51+x60-y51_60 <=1 
C1230: x51+x61 <=1 
C1231: x51+x63-y51_63 <=1 
C1232: x51+x65 <=1 
C1233: x52+x53-y52_53 <=1 
C1234: x52+x55 <=1 
C1235: x52+x56-y52_56 <=1 
C1236: x52+x57 <=1 
C1237: x52+x60-y52_60 <=1 
C1238: x53+x54 <=1 
C1239: x53+x56 <=1 
C1240: x53+x59-y53_59 <=1 
C1241: x53+x60-y53_60 <=1 
C1242: x53+x62 <=1 
C1243: x53+x63-y53_63 <=1 
C1244: x53+x64-y53_64 <=1 
C1245: x53+x65-y53_65 <=1 
C1246: x54+x56-y54_56 <=1 
C1247: x54+x58-y54_58 <=1 
C1248: x54+x59 <=1 
C1249: x54+x60 <=1 
C1250: x54+x64-y54_64 <=1 
C1251: x54+x65-y54_65 <=1 
C1252: x55+x56-y55_56 <=1 
C1253: x55+x58-y55_58 <=1 
C1254: x55+x60 <=1 
C1255: x55+x61 <=1 
C1256: x55+x63-y55_63 <=1 
C1257: x55+x64 <=1 
C1258: x56+x58-y56_58 <=1 
C1259: x56+x59-y56_59 <=1 
C1260: x56+x60 <=1 
C1261: x56+x61-y56_61 <=1 
C1262: x56+x62 <=1 
C1263: x56+x63-y56_63 <=1 
C1264: x56+x64-y56_64 <=1 
C1265: x56+x65-y56_65 <=1 
C1266: x57+x58 <=1 
C1267: x57+x59-y57_59 <=1 
C1268: x57+x63-y57_63 <=1 
C1269: x57+x64 <=1 
C1270: x57+x65 <=1 
C1271: x58+x59 <=1 
C1272: x58+x60-y58_60 <=1 
C1273: x58+x62 <=1 
C1274: x58+x63 <=1 
C1275: x59+x60 <=1 
C1276: x59+x61-y59_61 <=1 
C1277: x59+x62 <=1 
C1278: x59+x65-y59_65 <=1 
C1279: x60+x61-y60_61 <=1 
C1280: x60+x63 <=1 
C1281: x60+x64-y60_64 <=1 
C1282: x61+x64 <=1 
C1283: x61+x65-y61_65 <=1 
C1284: x62+x63 <=1 
C1285: x62+x64 <=1 
C1286: x62+x65 <=1 
C1287: x63+x64-y63_64 <=1 

binary
x0
x1
x2
x3
x4
x5
x6
x7
x8
x9
x10
x11
x12
x13
x14
x15
x16
x17
x18
x19
x20
x21
x22
x23
x24
x25
x26
x27
x28
x29
x30
x31
x32
x33
x34
x35
x36
x37
x38
x39
x40
x41
x42
x43
x44
x45
x46
x47
x48
x49
x50
x51
x52
x53
x54
x55
x56
x57
x58
x59
x60
x61
x62
x63
x64
x65
