problem_generation/data/GISP/train/er_n=66_m=1287_p=0.60_SET2_setparam=100.00_alpha=0.50_205.sol
objective value:                                 1180
x6                                                  1 	(obj:100)
x8                                                  1 	(obj:100)
x17                                                 1 	(obj:100)
x18                                                 1 	(obj:100)
x21                                                 1 	(obj:100)
x22                                                 1 	(obj:100)
x24                                                 1 	(obj:100)
x46                                                 1 	(obj:100)
x52                                                 1 	(obj:100)
x53                                                 1 	(obj:100)
x61                                                 1 	(obj:100)
x63                                                 1 	(obj:100)
y21_46                                              1 	(obj:-1)
y22_46                                              1 	(obj:-1)
y6_24                                               1 	(obj:-1)
y6_18                                               1 	(obj:-1)
y8_63                                               1 	(obj:-1)
y8_22                                               1 	(obj:-1)
y18_52                                              1 	(obj:-1)
y8_17                                               1 	(obj:-1)
y22_63                                              1 	(obj:-1)
y21_53                                              1 	(obj:-1)
y21_52                                              1 	(obj:-1)
y24_53                                              1 	(obj:-1)
y6_22                                               1 	(obj:-1)
y17_22                                              1 	(obj:-1)
y6_21                                               1 	(obj:-1)
y17_21                                              1 	(obj:-1)
y46_52                                              1 	(obj:-1)
y46_61                                              1 	(obj:-1)
y52_53                                              1 	(obj:-1)
y53_63                                              1 	(obj:-1)
